p cnf 38 180
c #### one port of a gate receives one connection
-1 -2 0
-1 -3 0
-4 -1 0
-3 -2 0
-4 -3 0
-5 -6 0
-5 -7 0
-5 -8 0
-9 -5 0
-7 -6 0
-9 -7 0
-9 -8 0
-10 -5 0
-8 -6 0
-10 -9 0
-8 -7 0
-10 -8 0
1 4 0
2 3 0
5 9 10 0
6 7 8 0
c #### one output of the circuit receives one connection
-11 -12 0
-13 -12 0
-13 -11 0
-14 -12 0
-14 -11 0
-14 -13 0
12 11 13 14 0
c #### input gate has input value
-15 0
16 0
-17 0
18 0
-19 0
-20 0
21 0
22 0
c #### internal gates produce calculated value
-4 -2 -19 -15 -23 24 0
-4 -2 -19 -15 23 -24 0
-4 -2 -19 15 -23 25 0
-4 -2 -19 15 23 -25 0
-4 -2 19 -15 -23 26 0
-4 -2 19 -15 23 -26 0
-4 -2 19 15 -23 27 0
-4 -2 19 15 23 -27 0
-4 -2 -20 -16 -28 24 0
-4 -2 -20 -16 28 -24 0
-4 -2 -20 16 -28 25 0
-4 -2 -20 16 28 -25 0
-4 -2 20 -16 -28 26 0
-4 -2 20 -16 28 -26 0
-4 -2 20 16 -28 27 0
-4 -2 20 16 28 -27 0
-4 -2 -21 -17 -29 24 0
-4 -2 -21 -17 29 -24 0
-4 -2 -21 17 -29 25 0
-4 -2 -21 17 29 -25 0
-4 -2 21 -17 -29 26 0
-4 -2 21 -17 29 -26 0
-4 -2 21 17 -29 27 0
-4 -2 21 17 29 -27 0
-4 -2 -22 -18 -30 24 0
-4 -2 -22 -18 30 -24 0
-4 -2 -22 18 -30 25 0
-4 -2 -22 18 30 -25 0
-4 -2 22 -18 -30 26 0
-4 -2 22 -18 30 -26 0
-4 -2 22 18 -30 27 0
-4 -2 22 18 30 -27 0
-9 -6 -19 -15 -31 32 0
-9 -6 -19 -15 31 -32 0
-9 -6 -19 15 -31 33 0
-9 -6 -19 15 31 -33 0
-9 -6 19 -15 -31 34 0
-9 -6 19 -15 31 -34 0
-9 -6 19 15 -31 35 0
-9 -6 19 15 31 -35 0
-9 -6 -20 -16 -36 32 0
-9 -6 -20 -16 36 -32 0
-9 -6 -20 16 -36 33 0
-9 -6 -20 16 36 -33 0
-9 -6 20 -16 -36 34 0
-9 -6 20 -16 36 -34 0
-9 -6 20 16 -36 35 0
-9 -6 20 16 36 -35 0
-9 -6 -21 -17 -37 32 0
-9 -6 -21 -17 37 -32 0
-9 -6 -21 17 -37 33 0
-9 -6 -21 17 37 -33 0
-9 -6 21 -17 -37 34 0
-9 -6 21 -17 37 -34 0
-9 -6 21 17 -37 35 0
-9 -6 21 17 37 -35 0
-9 -6 -22 -18 -38 32 0
-9 -6 -22 -18 38 -32 0
-9 -6 -22 18 -38 33 0
-9 -6 -22 18 38 -33 0
-9 -6 22 -18 -38 34 0
-9 -6 22 -18 38 -34 0
-9 -6 22 18 -38 35 0
-9 -6 22 18 38 -35 0
-10 -6 -23 -15 -31 32 0
-10 -6 -23 -15 31 -32 0
-10 -6 -23 15 -31 33 0
-10 -6 -23 15 31 -33 0
-10 -6 23 -15 -31 34 0
-10 -6 23 -15 31 -34 0
-10 -6 23 15 -31 35 0
-10 -6 23 15 31 -35 0
-10 -6 -28 -16 -36 32 0
-10 -6 -28 -16 36 -32 0
-10 -6 -28 16 -36 33 0
-10 -6 -28 16 36 -33 0
-10 -6 28 -16 -36 34 0
-10 -6 28 -16 36 -34 0
-10 -6 28 16 -36 35 0
-10 -6 28 16 36 -35 0
-10 -6 -29 -17 -37 32 0
-10 -6 -29 -17 37 -32 0
-10 -6 -29 17 -37 33 0
-10 -6 -29 17 37 -33 0
-10 -6 29 -17 -37 34 0
-10 -6 29 -17 37 -34 0
-10 -6 29 17 -37 35 0
-10 -6 29 17 37 -35 0
-10 -6 -30 -18 -38 32 0
-10 -6 -30 -18 38 -32 0
-10 -6 -30 18 -38 33 0
-10 -6 -30 18 38 -33 0
-10 -6 30 -18 -38 34 0
-10 -6 30 -18 38 -34 0
-10 -6 30 18 -38 35 0
-10 -6 30 18 38 -35 0
-10 -7 -23 -19 -31 32 0
-10 -7 -23 -19 31 -32 0
-10 -7 -23 19 -31 33 0
-10 -7 -23 19 31 -33 0
-10 -7 23 -19 -31 34 0
-10 -7 23 -19 31 -34 0
-10 -7 23 19 -31 35 0
-10 -7 23 19 31 -35 0
-10 -7 -28 -20 -36 32 0
-10 -7 -28 -20 36 -32 0
-10 -7 -28 20 -36 33 0
-10 -7 -28 20 36 -33 0
-10 -7 28 -20 -36 34 0
-10 -7 28 -20 36 -34 0
-10 -7 28 20 -36 35 0
-10 -7 28 20 36 -35 0
-10 -7 -29 -21 -37 32 0
-10 -7 -29 -21 37 -32 0
-10 -7 -29 21 -37 33 0
-10 -7 -29 21 37 -33 0
-10 -7 29 -21 -37 34 0
-10 -7 29 -21 37 -34 0
-10 -7 29 21 -37 35 0
-10 -7 29 21 37 -35 0
-10 -7 -30 -22 -38 32 0
-10 -7 -30 -22 38 -32 0
-10 -7 -30 22 -38 33 0
-10 -7 -30 22 38 -33 0
-10 -7 30 -22 -38 34 0
-10 -7 30 -22 38 -34 0
-10 -7 30 22 -38 35 0
-10 -7 30 22 38 -35 0
c #### outputs match truth table
-12 -15 0
-11 -19 0
-13 -23 0
-14 -31 0
-12 -16 0
-11 -20 0
-13 -28 0
-14 -36 0
-12 -17 0
-11 -21 0
-13 -29 0
-14 -37 0
-12 18 0
-11 22 0
-13 30 0
-14 38 0
c #### target truth table
c #### {"in":0,"out":0}
c #### {"in":1,"out":0}
c #### {"in":2,"out":0}
c #### {"in":3,"out":1}
c #### variable names
c #### c_2_0_0 0
c #### c_2_1_0 1
c #### c_2_1_1 2
c #### c_2_0_1 3
c #### c_3_0_0 4
c #### c_3_1_0 5
c #### c_3_1_1 6
c #### c_3_1_2 7
c #### c_3_0_1 8
c #### c_3_0_2 9
c #### o_1_0 10
c #### o_0_0 11
c #### o_2_0 12
c #### o_3_0 13
c #### v_0_0 14
c #### v_0_1 15
c #### v_0_2 16
c #### v_0_3 17
c #### v_1_0 18
c #### v_1_1 19
c #### v_1_2 20
c #### v_1_3 21
c #### v_2_0 22
c #### t_2_0_0 23
c #### t_2_0_1 24
c #### t_2_1_0 25
c #### t_2_1_1 26
c #### v_2_1 27
c #### v_2_2 28
c #### v_2_3 29
c #### v_3_0 30
c #### t_3_0_0 31
c #### t_3_0_1 32
c #### t_3_1_0 33
c #### t_3_1_1 34
c #### v_3_1 35
c #### v_3_2 36
c #### v_3_3 37
